db/data/142991002420002203215678176982088431388.z3.out
sat
-------------------
.539811732
